pure_adt/tip2015_weird_nat_op_comm_comm.smt2
(set-logic HORN)
(declare-datatypes ((Nat_162 0)) (((zero_4 ) (succ_4 (p_8 Nat_162)))))
(declare-fun diseqNat_162 (Nat_162 Nat_162) Bool)
(declare-fun p_9 (Nat_162 Nat_162) Bool)
(declare-fun iszero_4 (Nat_162) Bool)
(declare-fun issucc_4 (Nat_162) Bool)
(assert (forall ((x_4495 Nat_162))
	(p_9 x_4495 (succ_4 x_4495))))
(assert (iszero_4 zero_4))
(assert (forall ((x_4497 Nat_162))
	(issucc_4 (succ_4 x_4497))))
(assert (forall ((x_4498 Nat_162))
	(diseqNat_162 zero_4 (succ_4 x_4498))))
(assert (forall ((x_4499 Nat_162))
	(diseqNat_162 (succ_4 x_4499) zero_4)))
(assert (forall ((x_4500 Nat_162) (x_4501 Nat_162))
	(=> (diseqNat_162 x_4500 x_4501)
	    (diseqNat_162 (succ_4 x_4500) (succ_4 x_4501)))))
(declare-fun op_0 (Nat_162 Nat_162 Nat_162 Nat_162 Nat_162) Bool)
(assert (forall ((x_4486 Nat_162) (x_4484 Nat_162) (x_4482 Nat_162) (y_373 Nat_162) (x_4483 Nat_162))
	(=> (op_0 x_4486 x_4482 y_373 x_4484 (succ_4 x_4483))
	    (op_0 x_4486 x_4482 y_373 (succ_4 x_4484) x_4483))))
(assert (forall ((x_4488 Nat_162) (x_4485 Nat_162) (y_373 Nat_162) (x_4483 Nat_162))
	(=> (op_0 x_4488 x_4485 y_373 y_373 x_4483)
	    (op_0 x_4488 (succ_4 x_4485) y_373 zero_4 x_4483))))
(assert (forall ((y_373 Nat_162) (x_4483 Nat_162))
	(op_0 x_4483 zero_4 y_373 zero_4 x_4483)))
(assert (forall ((x_4491 Nat_162) (x_4492 Nat_162) (a_9 Nat_162) (b_8 Nat_162) (c_2 Nat_162) (d_0 Nat_162))
	(=>	(and true
			(diseqNat_162 x_4491 x_4492)
			(op_0 x_4491 a_9 b_8 c_2 d_0)
			(op_0 x_4492 b_8 a_9 d_0 c_2))
		false)))
(check-sat)
